100 4122
557 1050 999 1147 553 1072 705 931 594 846 622 366 498 401 654 699 317 881 486 1025 633 454 499 703 600 354 647 871 721 256 772 1023 267 694 1035 340 1168 574 214 1075 1051 453 281 1138 1066 306 600 748 948 209 1030 1062 822 1008 947 921 1066 851 735 1038 239 997 681 373 538 844 780 341 1104 669 900 954 600 1181 834 1121 501 484 551 327 774 1149 749 1105 312 844 513 594 907 1158 737 709 337 988 755 1194 1236 247 1032 1108 
357 750 799 947 353 872 505 731 294 546 422 66 298 201 454 499 117 681 186 825 433 254 299 503 400 54 447 671 521 56 572 823 67 494 835 140 968 374 14 875 851 253 81 938 866 106 300 548 748 9 830 762 522 708 747 721 866 651 535 738 39 797 481 173 338 644 480 141 804 469 600 654 400 981 534 921 301 284 351 127 474 949 549 905 112 644 313 294 707 958 537 509 137 788 555 894 936 47 832 908 
